0
59
22
0
46
0
24
35
0
15
50
27
9
12
20
38
13
29
19
24
14
0
27
30
38
0
0
0
0
19
0
12
46
11
9
19
19
0
25
19
77
14
0
0
13
33
33
0
12
13
8
11
23
10
13
0
22
0
34
24
0
10
14
16
12
0
19
0
15
0
0
22
24
0
22
0
32
0
18
25
0
0
10
40
78
29
0
9
0
26
33
0
8
19
0
0
26
9
0
31
